
Gurobi 10.0.1 (linux64) logging started Sun Nov 26 16:56:55 2023

Set parameter LogFile to value "ArtificialInstance/ExperimentV2/S3T5K3/BaDo/gurobi91.txt"
Gurobi Optimizer version 10.0.1 build v10.0.1rc0 (linux64)

CPU model: AMD EPYC 7H12 64-Core Processor, instruction set [SSE2|AVX|AVX2]
Thread count: 128 physical cores, 128 logical processors, using up to 32 threads

Academic license 656792 - for non-commercial use only - registered to b.___@student.vu.nl
Optimize a model with 1260 rows, 2000 columns and 6720 nonzeros
Model fingerprint: 0x6a6f0727
Variable types: 0 continuous, 2000 integer (2000 binary)
Coefficient statistics:
  Matrix range     [1e+00, 1e+00]
  Objective range  [2e+00, 2e+01]
  Bounds range     [1e+00, 1e+00]
  RHS range        [1e+00, 1e+00]
Found heuristic solution: objective 484.7638051
Presolve time: 0.01s
Presolved: 1260 rows, 2000 columns, 6720 nonzeros
Variable types: 0 continuous, 2000 integer (2000 binary)

Root relaxation: objective 4.112637e+01, 997 iterations, 0.01 seconds (0.01 work units)

    Nodes    |    Current Node    |     Objective Bounds      |     Work
 Expl Unexpl |  Obj  Depth IntInf | Incumbent    BestBd   Gap | It/Node Time

     0     0   41.12637    0  260  484.76381   41.12637  91.5%     -    0s
H    0     0                     213.9512868   41.12637  80.8%     -    0s
H    0     0                      82.2527313   41.12637  50.0%     -    0s
H    0     0                      79.9544159   41.12637  48.6%     -    0s
     0     0   47.10930    0  217   79.95442   47.10930  41.1%     -    0s
H    0     0                      73.3157734   47.10930  35.7%     -    0s
     0     0   48.28297    0  216   73.31577   48.28297  34.1%     -    0s
H    0     0                      73.2508516   51.43032  29.8%     -    0s
     0     0   51.43032    0  209   73.25085   51.43032  29.8%     -    0s
     0     0   51.43032    0  212   73.25085   51.43032  29.8%     -    0s
H    0     0                      62.3622199   53.31049  14.5%     -    0s
     0     0   53.31049    0  386   62.36222   53.31049  14.5%     -    0s
     0     0   53.60913    0  347   62.36222   53.60913  14.0%     -    0s
     0     0   53.63602    0  378   62.36222   53.63602  14.0%     -    0s
     0     0   53.63669    0  382   62.36222   53.63669  14.0%     -    0s
     0     0   55.28381    0  327   62.36222   55.28381  11.4%     -    0s
     0     0   55.44255    0  276   62.36222   55.44255  11.1%     -    0s
     0     0   55.44690    0  351   62.36222   55.44690  11.1%     -    0s
     0     0   55.77481    0  239   62.36222   55.77481  10.6%     -    0s
     0     0   56.03209    0  345   62.36222   56.03209  10.2%     -    0s
     0     0   56.05560    0  339   62.36222   56.05560  10.1%     -    0s
     0     0   56.06001    0  348   62.36222   56.06001  10.1%     -    0s
     0     0   56.63376    0  300   62.36222   56.63376  9.19%     -    0s
     0     0   56.71391    0  373   62.36222   56.71391  9.06%     -    0s
     0     0   56.71698    0  380   62.36222   56.71698  9.05%     -    0s
     0     0   56.98542    0  389   62.36222   56.98542  8.62%     -    0s
     0     0   57.02459    0  374   62.36222   57.02459  8.56%     -    0s
     0     0   57.03770    0  385   62.36222   57.03770  8.54%     -    0s
     0     0   57.04307    0  370   62.36222   57.04307  8.53%     -    0s
     0     0   57.05569    0  391   62.36222   57.05569  8.51%     -    0s
     0     0   57.05942    0  402   62.36222   57.05942  8.50%     -    0s
     0     0   57.13272    0  391   62.36222   57.13272  8.39%     -    0s
     0     0   57.14834    0  410   62.36222   57.14834  8.36%     -    0s
     0     0   57.15046    0  390   62.36222   57.15046  8.36%     -    0s
     0     0   57.18052    0  414   62.36222   57.18052  8.31%     -    0s
     0     0   57.21646    0  406   62.36222   57.21646  8.25%     -    0s
     0     0   57.21808    0  411   62.36222   57.21808  8.25%     -    0s
     0     0   57.37979    0  370   62.36222   57.37979  7.99%     -    0s
     0     0   57.40793    0  364   62.36222   57.40793  7.94%     -    0s
     0     0   57.41079    0  356   62.36222   57.41079  7.94%     -    0s
     0     0   57.41265    0  369   62.36222   57.41265  7.94%     -    0s
     0     0   57.41265    0  348   62.36222   57.41265  7.94%     -    0s
     0     0   57.41265    0  260   62.36222   57.41265  7.94%     -    0s
     0     0   57.41265    0  149   62.36222   57.41265  7.94%     -    0s
     0     0   57.41265    0  329   62.36222   57.41265  7.94%     -    1s
     0     0   57.41265    0  355   62.36222   57.41265  7.94%     -    1s
     0     0   57.41265    0  303   62.36222   57.41265  7.94%     -    1s
     0     0   57.41265    0  332   62.36222   57.41265  7.94%     -    1s
     0     0   57.41265    0  349   62.36222   57.41265  7.94%     -    1s
     0     0   57.41265    0  356   62.36222   57.41265  7.94%     -    1s
     0     0   57.54542    0  338   62.36222   57.54542  7.72%     -    1s
     0     0   57.60252    0  366   62.36222   57.60252  7.63%     -    1s
     0     0   57.61728    0  385   62.36222   57.61728  7.61%     -    1s
     0     0   57.62507    0  373   62.36222   57.62507  7.60%     -    1s
     0     0   57.63693    0  381   62.36222   57.63693  7.58%     -    1s
     0     0   57.65123    0  360   62.36222   57.65123  7.55%     -    1s
     0     0   57.65123    0  360   62.36222   57.65123  7.55%     -    1s
     0     0   57.65328    0  358   62.36222   57.65328  7.55%     -    1s
     0     0   57.65411    0  370   62.36222   57.65411  7.55%     -    1s
     0     0   57.69773    0  410   62.36222   57.69773  7.48%     -    1s
     0     0   57.69773    0  405   62.36222   57.69773  7.48%     -    1s
     0     2   57.69773    0  389   62.36222   57.69773  7.48%     -    1s

Cutting planes:
  Gomory: 14
  MIR: 1
  Zero half: 58
  RLT: 38

Explored 72 nodes (16263 simplex iterations) in 1.65 seconds (0.92 work units)
Thread count was 32 (of 128 available processors)

Solution count 7: 62.3622 73.2509 73.3158 ... 484.764

Optimal solution found (tolerance 1.00e-04)
Best objective 6.236221985896e+01, best bound 6.236221985896e+01, gap 0.0000%
